Set parameter Username
Academic license - for non-commercial use only - expires 2024-12-10
Set parameter LazyConstraints to value 1
Set parameter TimeLimit to value 600
Gurobi Optimizer version 10.0.0 build v10.0.0rc2 (linux64)

CPU model: Intel(R) Core(TM) i5-4590 CPU @ 3.30GHz, instruction set [SSE2|AVX|AVX2]
Thread count: 4 physical cores, 4 logical processors, using up to 4 threads

Optimize a model with 50083 rows, 12500 columns and 54084 nonzeros
Model fingerprint: 0x8b69f0c1
Variable types: 0 continuous, 12500 integer (12500 binary)
Coefficient statistics:
  Matrix range     [1e+00, 1e+00]
  Objective range  [1e+00, 1e+01]
  Bounds range     [1e+00, 1e+00]
  RHS range        [1e+00, 1e+00]
Presolve removed 50000 rows and 0 columns
Presolve time: 0.01s
Presolved: 83 rows, 12500 columns, 4084 nonzeros
Variable types: 0 continuous, 12500 integer (12500 binary)

Root relaxation: objective 6.300000e+01, 88 iterations, 0.00 seconds (0.00 work units)

    Nodes    |    Current Node    |     Objective Bounds      |     Work
 Expl Unexpl |  Obj  Depth IntInf | Incumbent    BestBd   Gap | It/Node Time

     0     0   63.00000    0    -          -   63.00000      -     -    2s
     0     0   63.00000    0    -          -   63.00000      -     -    3s
     0     0   63.00000    0    -          -   63.00000      -     -    3s
     0     0   63.00000    0    -          -   63.00000      -     -    4s
     0     0   63.00000    0    4          -   63.00000      -     -    4s
     0     0   86.00000    0    -          -   86.00000      -     -   11s
     0     0   86.00000    0    -          -   86.00000      -     -   12s
     0     0   86.00000    0    -          -   86.00000      -     -   12s
     0     0   86.00000    0    -          -   86.00000      -     -   12s
     0     0   86.00000    0    -          -   86.00000      -     -   13s
     0     0   86.00000    0    -          -   86.00000      -     -   13s
     0     0   86.00000    0    -          -   86.00000      -     -   14s
     0     0   86.00000    0    -          -   86.00000      -     -   14s
     0     0   86.00000    0    -          -   86.00000      -     -   15s
     0     0   86.00000    0    -          -   86.00000      -     -   15s
     0     0   86.00000    0    -          -   86.00000      -     -   15s
     0     0   86.00000    0    -          -   86.00000      -     -   16s
     0     0   86.00000    0    -          -   86.00000      -     -   16s
     0     0   86.00000    0    -          -   86.00000      -     -   17s
     0     0   86.00000    0    -          -   86.00000      -     -   17s
     0     0   86.00000    0    -          -   86.00000      -     -   18s
     0     0   86.00000    0    -          -   86.00000      -     -   18s
     0     0   86.00000    0    -          -   86.00000      -     -   18s
     0     0   86.00000    0    -          -   86.00000      -     -   19s
     0     0   86.00000    0    -          -   86.00000      -     -   19s
     0     0   86.00000    0    -          -   86.00000      -     -   20s
     0     0   86.00000    0    -          -   86.00000      -     -   20s
     0     0   86.00000    0    -          -   86.00000      -     -   21s
     0     0   86.00000    0    -          -   86.00000      -     -   21s
     0     0   86.00000    0    -          -   86.00000      -     -   21s
     0     0   86.00000    0    -          -   86.00000      -     -   22s
     0     0   86.00000    0    -          -   86.00000      -     -   22s
     0     0   86.00000    0    -          -   86.00000      -     -   23s
     0     0   86.00000    0    -          -   86.00000      -     -   23s
     0     0   86.00000    0    -          -   86.00000      -     -   24s
H    0     0                     455.0000000   86.00000  81.1%     -   24s
     0     0   86.00000    0    4  455.00000   86.00000  81.1%     -   24s
     0     0   86.00000    0    4  455.00000   86.00000  81.1%     -   28s
     0     0   86.00000    0    -  455.00000   86.00000  81.1%     -   30s
     0     0   86.00000    0    -  455.00000   86.00000  81.1%     -   30s
     0     0   86.00000    0    -  455.00000   86.00000  81.1%     -   31s
     0     0   86.00000    0    -  455.00000   86.00000  81.1%     -   31s
     0     0   86.00000    0    -  455.00000   86.00000  81.1%     -   32s
     0     0   86.00000    0    -  455.00000   86.00000  81.1%     -   32s
     0     0   86.00000    0    -  455.00000   86.00000  81.1%     -   32s
     0     0   86.00000    0    -  455.00000   86.00000  81.1%     -   33s
     0     0   86.00000    0    -  455.00000   86.00000  81.1%     -   33s
     0     0   86.00000    0    -  455.00000   86.00000  81.1%     -   34s
H    0     0                     427.0000000   86.00000  79.9%     -   34s
     0     0   86.00000    0    6  427.00000   86.00000  79.9%     -   34s
H    0     0                     426.0000000   86.00000  79.8%     -   35s
     0     2   86.00000    0    4  426.00000   86.00000  79.8%     -   42s
H   12     1                     422.0000000   86.00000  79.6%   1.7   48s
H   18     6                     417.0000000   86.00000  79.4%   1.6   51s
    33     5   86.00000    3    4  417.00000   86.00000  79.4%   2.1   55s
H   44     7                     414.0000000   86.00000  79.2%   2.8   58s
    55    13   86.00000    4    4  414.00000   86.00000  79.2%   2.7   61s
    67     8   86.00000    5    -  414.00000   86.00000  79.2%   2.7   65s
H   74    13                     412.0000000   86.00000  79.1%   2.7   67s
H  101    26                     409.0000000   86.00000  79.0%   3.1   76s
   119     6   86.00000    8    -  409.00000   86.00000  79.0%   3.3   81s
   162    26   86.00000    8    -  409.00000   86.00000  79.0%   3.5   93s
   225     3   86.00000    5    -  409.00000   86.00000  79.0%   3.7  108s
   330    20   86.00000    8    4  409.00000   86.00000  79.0%   3.7  133s
   368    51   86.00000    9    -  409.00000   86.00000  79.0%   3.6  144s
   437   100   86.00000   10    -  409.00000   86.00000  79.0%   3.8  159s
   468   119   86.00000   10    6  409.00000   86.00000  79.0%   3.8  168s
   592   131   86.00000   12    -  409.00000   86.00000  79.0%   3.9  195s
   621   149   86.00000   13    -  409.00000   86.00000  79.0%   3.9  203s
   650   166   86.00000   12    4  409.00000   86.00000  79.0%   3.9  208s
   872   295   86.00000   11    -  409.00000   86.00000  79.0%   4.0  253s
   899   312   86.00000   10    -  409.00000   86.00000  79.0%   4.0  261s
   926   324   86.00000   18    4  409.00000   86.00000  79.0%   4.0  266s
   953   339   86.00000   15    -  409.00000   86.00000  79.0%   4.0  271s
  1171   448   86.00000   14    7  409.00000   86.00000  79.0%   4.1  312s
  1197   459   86.00000   19    9  409.00000   86.00000  79.0%   4.1  319s
H 1207   463                     396.0000000   86.00000  78.3%   4.1  321s
H 1209   463                     395.0000000   86.00000  78.2%   4.1  322s
  1235   471   86.00000   10    -  395.00000   86.00000  78.2%   4.1  329s
H 1247   478                     394.0000000   86.00000  78.2%   4.1  332s
H 1262   482                     390.0000000   86.00000  77.9%   4.1  336s
  1288   493   86.00000   13    -  390.00000   86.00000  77.9%   4.1  341s
  1314   501   86.00000   21    7  390.00000   86.00000  77.9%   4.1  347s
  1494   602   86.00000   14    -  390.00000   86.00000  77.9%   4.1  386s
  1517   613   86.00000   18    -  390.00000   86.00000  77.9%   4.1  392s
  1540   633   86.00000   20    -  390.00000   86.00000  77.9%   4.1  401s
  1563   647   86.00000   14    -  390.00000   86.00000  77.9%   4.1  406s
  1586   658   86.00000   18    -  390.00000   86.00000  77.9%   4.1  411s
H 1660   703                     389.0000000   86.00000  77.9%   4.2  428s
  1683   712   86.00000   18    -  389.00000   86.00000  77.9%   4.2  433s
  1706   723   86.00000   20   15  389.00000   86.00000  77.9%   4.2  438s
  1910   850   86.00000   23    -  389.00000   86.00000  77.9%   4.3  480s
  1929   860   86.00000   16    -  389.00000   86.00000  77.9%   4.3  486s
  1948   868   86.00000   16    9  389.00000   86.00000  77.9%   4.3  492s
  1967   878   86.00000   19   14  389.00000   86.00000  77.9%   4.4  496s
H 2016   904                     388.0000000   86.00000  77.8%   4.4  508s
H 2020   906                     381.0000000   86.00000  77.4%   4.4  510s
  2145  1013   86.00000   25    -  381.00000   86.00000  77.4%   4.4  536s
  2162  1021   86.00000   24    5  381.00000   86.00000  77.4%   4.4  540s
  2179  1029   86.00000   29    -  381.00000   86.00000  77.4%   4.4  545s
  2196  1039   86.00000   15    -  381.00000   86.00000  77.4%   4.4  550s
  2230  1052   86.00000   24    -  381.00000   86.00000  77.4%   4.4  558s
  2247  1055   86.00000   23   10  381.00000   86.00000  77.4%   4.4  562s

Cutting planes:
  User: 1
  Lazy constraints: 340

Explored 2545 nodes (11753 simplex iterations) in 629.33 seconds (2.81 work units)
Thread count was 4 (of 4 available processors)

Solution count 10: 381 388 389 ... 414

Time limit reached
Best objective 3.810000000000e+02, best bound 8.600000000000e+01, gap 77.4278%

User-callback calls 6052, time in user-callback 623.59 sec
